*Heading
history replay beam 12x4x2 C3D8, 10 steps
*Node
1, 0.0, 0.0, 0.0
2, 1.0, 0.0, 0.0
3, 2.0, 0.0, 0.0
4, 3.0, 0.0, 0.0
5, 4.0, 0.0, 0.0
6, 5.0, 0.0, 0.0
7, 6.0, 0.0, 0.0
8, 7.0, 0.0, 0.0
9, 8.0, 0.0, 0.0
10, 9.0, 0.0, 0.0
11, 10.0, 0.0, 0.0
12, 11.0, 0.0, 0.0
13, 12.0, 0.0, 0.0
14, 0.0, 1.0, 0.0
15, 1.0, 1.0, 0.0
16, 2.0, 1.0, 0.0
17, 3.0, 1.0, 0.0
18, 4.0, 1.0, 0.0
19, 5.0, 1.0, 0.0
20, 6.0, 1.0, 0.0
21, 7.0, 1.0, 0.0
22, 8.0, 1.0, 0.0
23, 9.0, 1.0, 0.0
24, 10.0, 1.0, 0.0
25, 11.0, 1.0, 0.0
26, 12.0, 1.0, 0.0
27, 0.0, 2.0, 0.0
28, 1.0, 2.0, 0.0
29, 2.0, 2.0, 0.0
30, 3.0, 2.0, 0.0
31, 4.0, 2.0, 0.0
32, 5.0, 2.0, 0.0
33, 6.0, 2.0, 0.0
34, 7.0, 2.0, 0.0
35, 8.0, 2.0, 0.0
36, 9.0, 2.0, 0.0
37, 10.0, 2.0, 0.0
38, 11.0, 2.0, 0.0
39, 12.0, 2.0, 0.0
40, 0.0, 3.0, 0.0
41, 1.0, 3.0, 0.0
42, 2.0, 3.0, 0.0
43, 3.0, 3.0, 0.0
44, 4.0, 3.0, 0.0
45, 5.0, 3.0, 0.0
46, 6.0, 3.0, 0.0
47, 7.0, 3.0, 0.0
48, 8.0, 3.0, 0.0
49, 9.0, 3.0, 0.0
50, 10.0, 3.0, 0.0
51, 11.0, 3.0, 0.0
52, 12.0, 3.0, 0.0
53, 0.0, 4.0, 0.0
54, 1.0, 4.0, 0.0
55, 2.0, 4.0, 0.0
56, 3.0, 4.0, 0.0
57, 4.0, 4.0, 0.0
58, 5.0, 4.0, 0.0
59, 6.0, 4.0, 0.0
60, 7.0, 4.0, 0.0
61, 8.0, 4.0, 0.0
62, 9.0, 4.0, 0.0
63, 10.0, 4.0, 0.0
64, 11.0, 4.0, 0.0
65, 12.0, 4.0, 0.0
66, 0.0, 0.0, 1.0
67, 1.0, 0.0, 1.0
68, 2.0, 0.0, 1.0
69, 3.0, 0.0, 1.0
70, 4.0, 0.0, 1.0
71, 5.0, 0.0, 1.0
72, 6.0, 0.0, 1.0
73, 7.0, 0.0, 1.0
74, 8.0, 0.0, 1.0
75, 9.0, 0.0, 1.0
76, 10.0, 0.0, 1.0
77, 11.0, 0.0, 1.0
78, 12.0, 0.0, 1.0
79, 0.0, 1.0, 1.0
80, 1.0, 1.0, 1.0
81, 2.0, 1.0, 1.0
82, 3.0, 1.0, 1.0
83, 4.0, 1.0, 1.0
84, 5.0, 1.0, 1.0
85, 6.0, 1.0, 1.0
86, 7.0, 1.0, 1.0
87, 8.0, 1.0, 1.0
88, 9.0, 1.0, 1.0
89, 10.0, 1.0, 1.0
90, 11.0, 1.0, 1.0
91, 12.0, 1.0, 1.0
92, 0.0, 2.0, 1.0
93, 1.0, 2.0, 1.0
94, 2.0, 2.0, 1.0
95, 3.0, 2.0, 1.0
96, 4.0, 2.0, 1.0
97, 5.0, 2.0, 1.0
98, 6.0, 2.0, 1.0
99, 7.0, 2.0, 1.0
100, 8.0, 2.0, 1.0
101, 9.0, 2.0, 1.0
102, 10.0, 2.0, 1.0
103, 11.0, 2.0, 1.0
104, 12.0, 2.0, 1.0
105, 0.0, 3.0, 1.0
106, 1.0, 3.0, 1.0
107, 2.0, 3.0, 1.0
108, 3.0, 3.0, 1.0
109, 4.0, 3.0, 1.0
110, 5.0, 3.0, 1.0
111, 6.0, 3.0, 1.0
112, 7.0, 3.0, 1.0
113, 8.0, 3.0, 1.0
114, 9.0, 3.0, 1.0
115, 10.0, 3.0, 1.0
116, 11.0, 3.0, 1.0
117, 12.0, 3.0, 1.0
118, 0.0, 4.0, 1.0
119, 1.0, 4.0, 1.0
120, 2.0, 4.0, 1.0
121, 3.0, 4.0, 1.0
122, 4.0, 4.0, 1.0
123, 5.0, 4.0, 1.0
124, 6.0, 4.0, 1.0
125, 7.0, 4.0, 1.0
126, 8.0, 4.0, 1.0
127, 9.0, 4.0, 1.0
128, 10.0, 4.0, 1.0
129, 11.0, 4.0, 1.0
130, 12.0, 4.0, 1.0
131, 0.0, 0.0, 2.0
132, 1.0, 0.0, 2.0
133, 2.0, 0.0, 2.0
134, 3.0, 0.0, 2.0
135, 4.0, 0.0, 2.0
136, 5.0, 0.0, 2.0
137, 6.0, 0.0, 2.0
138, 7.0, 0.0, 2.0
139, 8.0, 0.0, 2.0
140, 9.0, 0.0, 2.0
141, 10.0, 0.0, 2.0
142, 11.0, 0.0, 2.0
143, 12.0, 0.0, 2.0
144, 0.0, 1.0, 2.0
145, 1.0, 1.0, 2.0
146, 2.0, 1.0, 2.0
147, 3.0, 1.0, 2.0
148, 4.0, 1.0, 2.0
149, 5.0, 1.0, 2.0
150, 6.0, 1.0, 2.0
151, 7.0, 1.0, 2.0
152, 8.0, 1.0, 2.0
153, 9.0, 1.0, 2.0
154, 10.0, 1.0, 2.0
155, 11.0, 1.0, 2.0
156, 12.0, 1.0, 2.0
157, 0.0, 2.0, 2.0
158, 1.0, 2.0, 2.0
159, 2.0, 2.0, 2.0
160, 3.0, 2.0, 2.0
161, 4.0, 2.0, 2.0
162, 5.0, 2.0, 2.0
163, 6.0, 2.0, 2.0
164, 7.0, 2.0, 2.0
165, 8.0, 2.0, 2.0
166, 9.0, 2.0, 2.0
167, 10.0, 2.0, 2.0
168, 11.0, 2.0, 2.0
169, 12.0, 2.0, 2.0
170, 0.0, 3.0, 2.0
171, 1.0, 3.0, 2.0
172, 2.0, 3.0, 2.0
173, 3.0, 3.0, 2.0
174, 4.0, 3.0, 2.0
175, 5.0, 3.0, 2.0
176, 6.0, 3.0, 2.0
177, 7.0, 3.0, 2.0
178, 8.0, 3.0, 2.0
179, 9.0, 3.0, 2.0
180, 10.0, 3.0, 2.0
181, 11.0, 3.0, 2.0
182, 12.0, 3.0, 2.0
183, 0.0, 4.0, 2.0
184, 1.0, 4.0, 2.0
185, 2.0, 4.0, 2.0
186, 3.0, 4.0, 2.0
187, 4.0, 4.0, 2.0
188, 5.0, 4.0, 2.0
189, 6.0, 4.0, 2.0
190, 7.0, 4.0, 2.0
191, 8.0, 4.0, 2.0
192, 9.0, 4.0, 2.0
193, 10.0, 4.0, 2.0
194, 11.0, 4.0, 2.0
195, 12.0, 4.0, 2.0
*Element, type=C3D8, elset=ALL
1, 1, 2, 15, 14, 66, 67, 80, 79
2, 2, 3, 16, 15, 67, 68, 81, 80
3, 3, 4, 17, 16, 68, 69, 82, 81
4, 4, 5, 18, 17, 69, 70, 83, 82
5, 5, 6, 19, 18, 70, 71, 84, 83
6, 6, 7, 20, 19, 71, 72, 85, 84
7, 7, 8, 21, 20, 72, 73, 86, 85
8, 8, 9, 22, 21, 73, 74, 87, 86
9, 9, 10, 23, 22, 74, 75, 88, 87
10, 10, 11, 24, 23, 75, 76, 89, 88
11, 11, 12, 25, 24, 76, 77, 90, 89
12, 12, 13, 26, 25, 77, 78, 91, 90
13, 14, 15, 28, 27, 79, 80, 93, 92
14, 15, 16, 29, 28, 80, 81, 94, 93
15, 16, 17, 30, 29, 81, 82, 95, 94
16, 17, 18, 31, 30, 82, 83, 96, 95
17, 18, 19, 32, 31, 83, 84, 97, 96
18, 19, 20, 33, 32, 84, 85, 98, 97
19, 20, 21, 34, 33, 85, 86, 99, 98
20, 21, 22, 35, 34, 86, 87, 100, 99
21, 22, 23, 36, 35, 87, 88, 101, 100
22, 23, 24, 37, 36, 88, 89, 102, 101
23, 24, 25, 38, 37, 89, 90, 103, 102
24, 25, 26, 39, 38, 90, 91, 104, 103
25, 27, 28, 41, 40, 92, 93, 106, 105
26, 28, 29, 42, 41, 93, 94, 107, 106
27, 29, 30, 43, 42, 94, 95, 108, 107
28, 30, 31, 44, 43, 95, 96, 109, 108
29, 31, 32, 45, 44, 96, 97, 110, 109
30, 32, 33, 46, 45, 97, 98, 111, 110
31, 33, 34, 47, 46, 98, 99, 112, 111
32, 34, 35, 48, 47, 99, 100, 113, 112
33, 35, 36, 49, 48, 100, 101, 114, 113
34, 36, 37, 50, 49, 101, 102, 115, 114
35, 37, 38, 51, 50, 102, 103, 116, 115
36, 38, 39, 52, 51, 103, 104, 117, 116
37, 40, 41, 54, 53, 105, 106, 119, 118
38, 41, 42, 55, 54, 106, 107, 120, 119
39, 42, 43, 56, 55, 107, 108, 121, 120
40, 43, 44, 57, 56, 108, 109, 122, 121
41, 44, 45, 58, 57, 109, 110, 123, 122
42, 45, 46, 59, 58, 110, 111, 124, 123
43, 46, 47, 60, 59, 111, 112, 125, 124
44, 47, 48, 61, 60, 112, 113, 126, 125
45, 48, 49, 62, 61, 113, 114, 127, 126
46, 49, 50, 63, 62, 114, 115, 128, 127
47, 50, 51, 64, 63, 115, 116, 129, 128
48, 51, 52, 65, 64, 116, 117, 130, 129
49, 66, 67, 80, 79, 131, 132, 145, 144
50, 67, 68, 81, 80, 132, 133, 146, 145
51, 68, 69, 82, 81, 133, 134, 147, 146
52, 69, 70, 83, 82, 134, 135, 148, 147
53, 70, 71, 84, 83, 135, 136, 149, 148
54, 71, 72, 85, 84, 136, 137, 150, 149
55, 72, 73, 86, 85, 137, 138, 151, 150
56, 73, 74, 87, 86, 138, 139, 152, 151
57, 74, 75, 88, 87, 139, 140, 153, 152
58, 75, 76, 89, 88, 140, 141, 154, 153
59, 76, 77, 90, 89, 141, 142, 155, 154
60, 77, 78, 91, 90, 142, 143, 156, 155
61, 79, 80, 93, 92, 144, 145, 158, 157
62, 80, 81, 94, 93, 145, 146, 159, 158
63, 81, 82, 95, 94, 146, 147, 160, 159
64, 82, 83, 96, 95, 147, 148, 161, 160
65, 83, 84, 97, 96, 148, 149, 162, 161
66, 84, 85, 98, 97, 149, 150, 163, 162
67, 85, 86, 99, 98, 150, 151, 164, 163
68, 86, 87, 100, 99, 151, 152, 165, 164
69, 87, 88, 101, 100, 152, 153, 166, 165
70, 88, 89, 102, 101, 153, 154, 167, 166
71, 89, 90, 103, 102, 154, 155, 168, 167
72, 90, 91, 104, 103, 155, 156, 169, 168
73, 92, 93, 106, 105, 157, 158, 171, 170
74, 93, 94, 107, 106, 158, 159, 172, 171
75, 94, 95, 108, 107, 159, 160, 173, 172
76, 95, 96, 109, 108, 160, 161, 174, 173
77, 96, 97, 110, 109, 161, 162, 175, 174
78, 97, 98, 111, 110, 162, 163, 176, 175
79, 98, 99, 112, 111, 163, 164, 177, 176
80, 99, 100, 113, 112, 164, 165, 178, 177
81, 100, 101, 114, 113, 165, 166, 179, 178
82, 101, 102, 115, 114, 166, 167, 180, 179
83, 102, 103, 116, 115, 167, 168, 181, 180
84, 103, 104, 117, 116, 168, 169, 182, 181
85, 105, 106, 119, 118, 170, 171, 184, 183
86, 106, 107, 120, 119, 171, 172, 185, 184
87, 107, 108, 121, 120, 172, 173, 186, 185
88, 108, 109, 122, 121, 173, 174, 187, 186
89, 109, 110, 123, 122, 174, 175, 188, 187
90, 110, 111, 124, 123, 175, 176, 189, 188
91, 111, 112, 125, 124, 176, 177, 190, 189
92, 112, 113, 126, 125, 177, 178, 191, 190
93, 113, 114, 127, 126, 178, 179, 192, 191
94, 114, 115, 128, 127, 179, 180, 193, 192
95, 115, 116, 129, 128, 180, 181, 194, 193
96, 116, 117, 130, 129, 181, 182, 195, 194
*Nset, nset=ROOT
1, 14, 27, 40, 53, 66, 79, 92, 105, 118, 131, 144, 157, 170, 183
*Nset, nset=TIP
13, 26, 39, 52, 65, 78, 91, 104, 117, 130, 143, 156, 169, 182, 195
*Nset, nset=TIPMID
39
*Elset, elset=ROOTEL, generate
1, 85, 12
*Material, name=UMATMAT
*Depvar
1
*User Material, constants=4
200000.0, 0.3, 250.0, 2000.0
*Solid Section, elset=ALL, material=UMATMAT
,
*Boundary
ROOT, ENCASTRE
*Step, name=Push, nlgeom=NO, inc=20
*Static, direct
0.1, 1.0
*Controls, parameters=field, field=global
1e-9, 1e-8
*Boundary
TIP, 2, 2, -0.08
*Output, field, frequency=1
*Node Output
U, RF
*Element Output, position=INTEGRATION POINTS
S, SDV
*End Step
